NAME : input100_9.txt .out.tour
COMMENT : Tour for input100_9.txt .tsp (Length 1004.62)
TYPE : TOUR
DIMENSION : 100
TOUR_SECTION
1
90
31
7
54
49
44
33
38
52
58
20
43
63
84
6
5
82
47
55
42
35
18
59
9
86
61
92
65
48
85
77
39
89
30
100
75
25
24
96
3
13
15
87
66
67
11
4
46
28
60
62
27
53
17
36
79
8
41
19
51
56
91
73
83
81
45
64
2
37
95
57
88
97
32
29
78
21
14
70
23
74
80
12
16
93
98
50
68
76
34
22
69
94
72
26
40
10
99
71
1
